74983.0
1334
3 6 10 11 14 17 22 31 34 35 40 41 42 43 45 47 48 63 64 69 74 75 76 78 79 82 87 89 91 95 100 101 102 103 106 109 112 113 116 121 122 127 131 135 139 140 141 142 143 145 148 150 153 154 159 164 166 168 172 176 177 178 180 183 184 185 188 189 198 